Minimize
  0.125 y_0 + 0.0833333333333333 y_1 + 0.0909090909090909 y_2 + 0.1 y_3
   + 0.0769230769230769 y_4 + 0.0833333333333333 y_5 + 0.2 y_6 + 0.125 y_7
   + 0.1 y_8 + 0.1666666666666667 y_9 + 0.1428571428571428 y_10
   + 0.0833333333333333 y_11 + 0.125 y_12 + 0.5 y_13 + 0.5 y_14
   + 0.1428571428571428 y_15 + 0.2 y_16 + y_17 + 0.1428571428571428 y_18
   + 0.125 y_19 + 0.25 y_20 + 0.125 y_21 + 0.1666666666666667 y_22
   + 0.125 y_23 + 0.0909090909090909 y_24 + 0.0833333333333333 y_25
   + 0.125 y_26 + 0.1666666666666667 y_27 + 0.0833333333333333 y_28
   + 0.1111111111111111 y_29 + 0.1111111111111111 y_30
   + 0.1666666666666667 y_31 + 0.125 y_32 + 0.1666666666666667 y_33
   + 0.1666666666666667 y_34 + 0.1111111111111111 y_35
   + 0.3333333333333333 y_36 + 0.0833333333333333 y_37 + 0.1 y_38
   + 0.1 y_39 + 0.125 y_40 + 0.2 y_41 + 0.0769230769230769 y_42
   + 0.1666666666666667 y_43 + 0.0833333333333333 y_44 + 0.125 y_45
   + 0.1111111111111111 y_46 + 0.1428571428571428 y_47
   + 0.1111111111111111 y_48 + 0.1111111111111111 y_49
   - 8.157092907092904 Constant
Subject To
 c_0: y_12 = 1
 c_1_0: y_0 + y_45 + y_48 >= 1
 c_1_1: y_1 + y_2 >= 1
 c_1_2: y_1 + y_2 + y_38 >= 1
 c_1_3: y_3 >= 1
 c_1_4: y_4 + y_37 >= 1
 c_1_5: y_5 + y_11 + y_25 >= 1
 c_1_6: y_6 + y_22 >= 1
 c_1_7: y_7 + y_26 + y_32 + y_47 >= 1
 c_1_8: y_8 + y_24 >= 1
 c_1_9: y_9 + y_22 + y_41 >= 1
 c_1_10: y_10 + y_12 + y_16 + y_23 >= 1
 c_1_11: y_5 + y_11 + y_25 >= 1
 c_1_12: y_10 + y_12 + y_23 >= 1
 c_1_13: y_13 + y_14 + y_17 + y_20 >= 1
 c_1_14: y_13 + y_14 + y_17 + y_20 >= 1
 c_1_15: y_15 + y_18 + y_21 >= 1
 c_1_16: y_10 + y_16 >= 1
 c_1_17: y_13 + y_14 + y_17 + y_36 >= 1
 c_1_18: y_15 + y_18 + y_21 >= 1
 c_1_19: y_19 + y_49 >= 1
 c_1_20: y_13 + y_14 + y_20 + y_43 >= 1
 c_1_21: y_15 + y_18 + y_21 >= 1
 c_1_22: y_6 + y_9 + y_22 >= 1
 c_1_23: y_10 + y_12 + y_23 >= 1
 c_1_24: y_8 + y_24 + y_28 >= 1
 c_1_25: y_5 + y_11 + y_25 >= 1
 c_1_26: y_7 + y_26 + y_32 + y_34 + y_38 + y_47 >= 1
 c_1_27: y_27 >= 1
 c_1_28: y_24 + y_28 >= 1
 c_1_29: y_29 >= 1
 c_1_30: y_30 + y_46 >= 1
 c_1_31: y_31 >= 1
 c_1_32: y_7 + y_26 + y_32 + y_34 + y_47 >= 1
 c_1_33: y_33 + y_41 >= 1
 c_1_34: y_26 + y_32 + y_34 + y_47 >= 1
 c_1_35: y_35 >= 1
 c_1_36: y_17 + y_36 >= 1
 c_1_37: y_4 + y_37 >= 1
 c_1_38: y_2 + y_26 + y_38 >= 1
 c_1_39: y_39 >= 1
 c_1_40: y_40 >= 1
 c_1_41: y_9 + y_33 + y_41 >= 1
 c_1_42: y_42 >= 1
 c_1_43: y_20 + y_43 >= 1
 c_1_44: y_44 >= 1
 c_1_45: y_0 + y_45 + y_48 >= 1
 c_1_46: y_30 + y_46 >= 1
 c_1_47: y_7 + y_26 + y_32 + y_34 + y_47 >= 1
 c_1_48: y_0 + y_45 + y_48 >= 1
 c_1_49: y_19 + y_49 >= 1
Bounds
 Constant = 1
Binaries
 y_0 y_1 y_2 y_3 y_4 y_5 y_6 y_7 y_8 y_9 y_10 y_11 y_12 y_13 y_14 y_15 y_16
 y_17 y_18 y_19 y_20 y_21 y_22 y_23 y_24 y_25 y_26 y_27 y_28 y_29 y_30 y_31
 y_32 y_33 y_34 y_35 y_36 y_37 y_38 y_39 y_40 y_41 y_42 y_43 y_44 y_45 y_46
 y_47 y_48 y_49
End
